92 4
17 15 20 14
0 0 0 0 0 3 2 3 4
5 0 3 0 0 3 7 13 18
6 2 0 0 0 3 5 16 20
5 0 6 0 0 3 6 8 41
5 0 0 7 0 1 65
1 0 0 3 0 3 9 23 68
2 7 0 0 0 3 11 25 33
1 0 0 9 0 3 10 12 14
8 0 0 0 6 3 15 26 30
4 0 10 0 0 1 49
9 0 6 0 0 3 19 28 34
2 9 0 0 0 2 29 75
2 0 1 0 0 2 37 59
7 9 0 0 0 2 31 65
9 0 4 0 0 2 17 46
6 0 0 0 1 2 24 89
5 0 0 8 0 1 67
2 0 0 0 6 1 86
3 0 0 4 0 2 21 27
1 0 0 0 6 3 22 36 63
8 0 0 0 4 1 83
10 10 0 0 0 2 39 48
6 10 0 0 0 1 43
7 0 0 6 0 1 81
2 0 7 0 0 1 36
9 0 0 8 0 3 44 54 56
1 2 0 0 0 1 74
6 0 0 4 0 3 32 42 53
5 0 0 9 0 2 35 61
5 0 0 0 6 2 38 70
5 0 7 0 0 1 46
9 0 0 8 0 1 80
8 0 1 0 0 1 43
10 2 0 0 0 1 50
2 10 0 0 0 3 51 52 77
1 0 1 0 0 1 45
7 0 10 0 0 1 47
10 2 0 0 0 1 45
9 8 0 0 0 2 40 73
1 0 0 10 0 1 52
1 0 0 0 7 1 76
4 0 7 0 0 2 49 62
6 0 0 0 4 1 58
10 0 0 10 0 1 49
2 0 0 6 0 3 55 57 60
2 0 0 1 0 2 78 79
4 0 0 0 2 1 64
4 1 0 0 0 1 69
8 0 0 9 0 1 72
2 0 0 5 0 2 51 81
5 0 0 0 10 1 85
2 0 0 0 9 1 71
1 0 0 1 0 1 84
8 0 6 0 0 2 60 64
8 0 5 0 0 1 65
10 0 0 0 9 1 71
10 0 0 0 4 2 66 84
2 0 0 0 2 1 69
2 0 0 7 0 1 91
6 0 0 0 4 1 90
2 0 8 0 0 1 87
5 0 0 10 0 1 69
2 7 0 0 0 1 79
6 0 0 1 0 2 82 88
8 0 0 9 0 1 83
3 6 0 0 0 1 79
9 7 0 0 0 1 83
7 2 0 0 0 1 72
4 2 0 0 0 2 70 78
10 5 0 0 0 1 82
4 0 0 0 5 1 80
10 0 1 0 0 1 85
5 0 0 10 0 1 85
5 0 0 6 0 1 86
2 1 0 0 0 1 76
10 10 0 0 0 1 86
8 0 0 0 3 1 78
2 0 0 0 7 1 84
7 0 3 0 0 1 81
8 9 0 0 0 1 82
3 0 4 0 0 2 88 91
10 0 5 0 0 1 91
1 0 0 0 5 2 88 89
5 6 0 0 0 1 87
5 8 0 0 0 1 87
3 0 0 0 7 1 90
7 0 1 0 0 1 89
9 4 0 0 0 1 90
2 0 0 0 6 1 92
3 0 6 0 0 1 92
7 0 0 0 1 1 92
0 0 0 0 0 0 